\ This file has been generated by DOcplex
\ ENCODING=ISO-8859-1
\Problem name: random_problem.lp

Minimize
 obj: - 286 x0 - 143 x1 - 66 x2 - 33 x3 + 56 x4 + 28 x5 + 870 x6 + 435 x7
      - 236 x8 - 118 x9 - 44 x10 - 22 x11 + 208 x12 + 104 x13 - 244 x14
      - 122 x15 - 698 x16 - 349 x17 + 172 x18 + 86 x19 + 628 x20 + 314 x21 + [
      728 x0^2 + 728 x0*x1 + 96 x0*x2 + 48 x0*x3 + 400 x0*x4 + 200 x0*x5
      + 704 x0*x6 + 352 x0*x7 + 208 x0*x8 + 104 x0*x9 + 496 x0*x10 + 248 x0*x11
      + 864 x0*x12 + 432 x0*x13 + 672 x0*x14 + 336 x0*x15 + 80 x0*x16
      + 40 x0*x17 + 848 x0*x18 + 424 x0*x19 + 160 x0*x20 + 80 x0*x21 + 182 x1^2
      + 48 x1*x2 + 24 x1*x3 + 200 x1*x4 + 100 x1*x5 + 352 x1*x6 + 176 x1*x7
      + 104 x1*x8 + 52 x1*x9 + 248 x1*x10 + 124 x1*x11 + 432 x1*x12 + 216 x1*x13
      + 336 x1*x14 + 168 x1*x15 + 40 x1*x16 + 20 x1*x17 + 424 x1*x18
      + 212 x1*x19 + 80 x1*x20 + 40 x1*x21 + 296 x2^2 + 296 x2*x3 - 112 x2*x4
      - 56 x2*x5 + 448 x2*x6 + 224 x2*x7 + 224 x2*x8 + 112 x2*x9 + 352 x2*x10
      + 176 x2*x11 + 32 x2*x12 + 16 x2*x13 + 432 x2*x14 + 216 x2*x15 - 32 x2*x16
      - 16 x2*x17 + 352 x2*x18 + 176 x2*x19 + 512 x2*x20 + 256 x2*x21 + 74 x3^2
      - 56 x3*x4 - 28 x3*x5 + 224 x3*x6 + 112 x3*x7 + 112 x3*x8 + 56 x3*x9
      + 176 x3*x10 + 88 x3*x11 + 16 x3*x12 + 8 x3*x13 + 216 x3*x14 + 108 x3*x15
      - 16 x3*x16 - 8 x3*x17 + 176 x3*x18 + 88 x3*x19 + 256 x3*x20 + 128 x3*x21
      + 536 x4^2 + 536 x4*x5 + 320 x4*x6 + 160 x4*x7 + 192 x4*x8 + 96 x4*x9
      + 32 x4*x10 + 16 x4*x11 + 512 x4*x12 + 256 x4*x13 + 448 x4*x14
      + 224 x4*x15 + 496 x4*x16 + 248 x4*x17 + 80 x4*x18 + 40 x4*x19 - 32 x4*x20
      - 16 x4*x21 + 134 x5^2 + 160 x5*x6 + 80 x5*x7 + 96 x5*x8 + 48 x5*x9
      + 16 x5*x10 + 8 x5*x11 + 256 x5*x12 + 128 x5*x13 + 224 x5*x14 + 112 x5*x15
      + 248 x5*x16 + 124 x5*x17 + 40 x5*x18 + 20 x5*x19 - 16 x5*x20 - 8 x5*x21
      + 1032 x6^2 + 1032 x6*x7 + 96 x6*x8 + 48 x6*x9 + 704 x6*x10 + 352 x6*x11
      + 864 x6*x12 + 432 x6*x13 + 1072 x6*x14 + 536 x6*x15 + 352 x6*x16
      + 176 x6*x17 + 992 x6*x18 + 496 x6*x19 + 512 x6*x20 + 256 x6*x21
      + 258 x7^2 + 48 x7*x8 + 24 x7*x9 + 352 x7*x10 + 176 x7*x11 + 432 x7*x12
      + 216 x7*x13 + 536 x7*x14 + 268 x7*x15 + 176 x7*x16 + 88 x7*x17
      + 496 x7*x18 + 248 x7*x19 + 256 x7*x20 + 128 x7*x21 + 464 x8^2 + 464 x8*x9
      - 128 x8*x10 - 64 x8*x11 - 288 x8*x12 - 144 x8*x13 + 64 x8*x14 + 32 x8*x15
      + 48 x8*x16 + 24 x8*x17 + 416 x8*x18 + 208 x8*x19 + 192 x8*x20 + 96 x8*x21
      + 116 x9^2 - 64 x9*x10 - 32 x9*x11 - 144 x9*x12 - 72 x9*x13 + 32 x9*x14
      + 16 x9*x15 + 24 x9*x16 + 12 x9*x17 + 208 x9*x18 + 104 x9*x19 + 96 x9*x20
      + 48 x9*x21 + 1168 x10^2 + 1168 x10*x11 + 816 x10*x12 + 408 x10*x13
      + 1152 x10*x14 + 576 x10*x15 + 128 x10*x16 + 64 x10*x17 + 144 x10*x18
      + 72 x10*x19 + 1296 x10*x20 + 648 x10*x21 + 292 x11^2 + 408 x11*x12
      + 204 x11*x13 + 576 x11*x14 + 288 x11*x15 + 64 x11*x16 + 32 x11*x17
      + 72 x11*x18 + 36 x11*x19 + 648 x11*x20 + 324 x11*x21 + 680 x12^2
      + 680 x12*x13 + 880 x12*x14 + 440 x12*x15 + 160 x12*x16 + 80 x12*x17
      + 576 x12*x18 + 288 x12*x19 + 512 x12*x20 + 256 x12*x21 + 170 x13^2
      + 440 x13*x14 + 220 x13*x15 + 80 x13*x16 + 40 x13*x17 + 288 x13*x18
      + 144 x13*x19 + 256 x13*x20 + 128 x13*x21 + 736 x14^2 + 736 x14*x15
      + 368 x14*x16 + 184 x14*x17 + 688 x14*x18 + 344 x14*x19 + 912 x14*x20
      + 456 x14*x21 + 184 x15^2 + 184 x15*x16 + 92 x15*x17 + 344 x15*x18
      + 172 x15*x19 + 456 x15*x20 + 228 x15*x21 + 472 x16^2 + 472 x16*x17
      + 176 x16*x18 + 88 x16*x19 - 272 x16*x20 - 136 x16*x21 + 118 x17^2
      + 88 x17*x18 + 44 x17*x19 - 136 x17*x20 - 68 x17*x21 + 1072 x18^2
      + 1072 x18*x19 + 1168 x18*x20 + 584 x18*x21 + 268 x19^2 + 584 x19*x20
      + 292 x19*x21 + 2112 x20^2 + 2112 x20*x21 + 528 x21^2 ]/2
Subject To
 c0: 2 x0 + x1 + 2 x2 + x3 + 2 x4 + x5 + 2 x6 + x7 + 2 x8 + x9 + 2 x10 + x11
     + 2 x12 + x13 + 2 x14 + x15 + 2 x16 + x17 + 2 x18 + x19 + 2 x20 + x21 = 3

Bounds
 0 <= x0 <= 1
 0 <= x1 <= 1
 0 <= x2 <= 1
 0 <= x3 <= 1
 0 <= x4 <= 1
 0 <= x5 <= 1
 0 <= x6 <= 1
 0 <= x7 <= 1
 0 <= x8 <= 1
 0 <= x9 <= 1
 0 <= x10 <= 1
 0 <= x11 <= 1
 0 <= x12 <= 1
 0 <= x13 <= 1
 0 <= x14 <= 1
 0 <= x15 <= 1
 0 <= x16 <= 1
 0 <= x17 <= 1
 0 <= x18 <= 1
 0 <= x19 <= 1
 0 <= x20 <= 1
 0 <= x21 <= 1

Binaries
 x0 x1 x2 x3 x4 x5 x6 x7 x8 x9 x10 x11 x12 x13 x14 x15 x16 x17 x18 x19 x20 x21
End
